(set-logic QF_S)
(set-option :strings-exp true)
(set-option :produce-models true)
(declare-fun sigmaStar_0 () String)
(declare-fun literal_5 () String)
(assert (= literal_5 "\x5c\x74\x74\x6f\x74\x61\x6c\x5c\x6e"))
(assert (str.in.re literal_5 (re.++ (re.* re.allchar) (re.++ (str.to.re "\x5c\x3c\x53\x43\x52\x49\x50\x54") (re.* re.allchar)))))
(check-sat)
(get-model)
